n = 8;
k = 4;
maxsize = 8;
nML = 2;
nCL = 2;
deg = [2, 1, 1, 1, 2, 2, 1, 2];
ML = array2d(1..2, 1..2, [1, 6, 4, 3]);
CL = array2d(1..2, 1..2, [7, 8, 5, 2]);
A = array2d(1..8, 1..8, [ 0, 0, 1, 0, 1, 0, 0, 0, 0, 0, 0, 0, 0, 1, 0, 0, 1, 0, 0, 0, 0, 0, 0, 0, 0, 0, 0, 0, 0, 0, 0, 1, 1, 0, 0, 0, 0, 0, 0, 1, 0, 1, 0, 0, 0, 0, 1, 0, 0, 0, 0, 0, 0, 1, 0, 0, 0, 0, 0, 1, 1, 0, 0, 0 ]);
W = array2d(1..8, 1..8, [ 6, 7, -5, 3, -8, -8, 8, -2, -7, -1, -7, 7, 6, -1, 3, 5, 4, 2, -10, 2, -6, 10, 9, -4, 1, -6, -2, -2, -9, -1, -5, 8, -1, 4, -10, 6, -1, -6, -9, 10, -3, -7, -8, -10, -8, -10, -4, 0, 2, 8, 0, -3, 2, -5, 9, -10, -5, -7, 4, 6, -10, -10, 4, 4 ]);